\Problem name: compact

Minimize
OBJROW: C
Subject To
ord(0,1):  x(0,0) - x(0,2) >= 4
ord(0,2):  - x(0,0) + x(0,1) >= 10
ord(1,1):  - x(1,1) + x(1,2) >= 4
ord(1,2):  x(1,0) - x(1,2) >= 9
ord(2,1):  x(2,0) - x(2,2) >= 5
ord(2,2):  - x(2,0) + x(2,1) >= 1
triangle2(0,1,0):  y(0,1,0) + y(1,0,0) = 1
triangle2(0,1,1):  y(0,1,1) + y(1,0,1) = 1
triangle2(0,1,2):  y(0,1,2) + y(1,0,2) = 1
triangle2(0,2,0):  y(0,2,0) + y(2,0,0) = 1
triangle2(0,2,1):  y(0,2,1) + y(2,0,1) = 1
triangle2(0,2,2):  y(0,2,2) + y(2,0,2) = 1
triangle2(1,2,0):  y(1,2,0) + y(2,1,0) = 1
triangle2(1,2,1):  y(1,2,1) + y(2,1,1) = 1
triangle2(1,2,2):  y(1,2,2) + y(2,1,2) = 1
MCLinV(0,1,0):  x(0,0) - v(0,1,0) - x(1,0) = 7
MCLinV(1,0,0):  - x(0,0) - v(1,0,0) + x(1,0) = 10
MCLin1(0,1,0):  u(0,1,0) >= -0
MCLin2(0,1,0):  -45 y(1,0,0) - u(0,1,0) <= -0
MCLin3(0,1,0):  17 y(1,0,0) + v(0,1,0) - u(0,1,0) <= 17
MCLin4(0,1,0):  17 y(1,0,0) - u(0,1,0) >= -0
MCLin5(0,1,0):  -45 y(1,0,0) + v(0,1,0) - u(0,1,0) >= -45
MCLin6(1,0,0):  u(1,0,0) >= -0
MCLin7(1,0,0):  -34 y(0,1,0) - u(1,0,0) <= -0
MCLin8(1,0,0):  28 y(0,1,0) + v(1,0,0) - u(1,0,0) <= 28
MCLin9(1,0,0):  28 y(0,1,0) - u(1,0,0) >= -0
MCLin10(1,0,0):  -34 y(0,1,0) + v(1,0,0) - u(1,0,0) >= -34
MCLinV(0,1,1):  x(0,1) - v(0,1,1) - x(1,1) = 4
MCLinV(1,0,1):  - x(0,1) - v(1,0,1) + x(1,1) = 2
MCLin1(0,1,1):  u(0,1,1) >= -0
MCLin2(0,1,1):  -19 y(1,0,1) - u(0,1,1) <= -0
MCLin3(0,1,1):  43 y(1,0,1) + v(0,1,1) - u(0,1,1) <= 43
MCLin4(0,1,1):  43 y(1,0,1) - u(0,1,1) >= -0
MCLin5(0,1,1):  -19 y(1,0,1) + v(0,1,1) - u(0,1,1) >= -19
MCLin6(1,0,1):  u(1,0,1) >= -0
MCLin7(1,0,1):  -49 y(0,1,1) - u(1,0,1) <= -0
MCLin8(1,0,1):  13 y(0,1,1) + v(1,0,1) - u(1,0,1) <= 13
MCLin9(1,0,1):  13 y(0,1,1) - u(1,0,1) >= -0
MCLin10(1,0,1):  -49 y(0,1,1) + v(1,0,1) - u(1,0,1) >= -49
MCLinV(0,1,2):  x(0,2) - v(0,1,2) - x(1,2) = 9
MCLinV(1,0,2):  - x(0,2) - v(1,0,2) + x(1,2) = 4
MCLin1(0,1,2):  u(0,1,2) >= -0
MCLin2(0,1,2):  -42 y(1,0,2) - u(0,1,2) <= -0
MCLin3(0,1,2):  20 y(1,0,2) + v(0,1,2) - u(0,1,2) <= 20
MCLin4(0,1,2):  20 y(1,0,2) - u(0,1,2) >= -0
MCLin5(0,1,2):  -42 y(1,0,2) + v(0,1,2) - u(0,1,2) >= -42
MCLin6(1,0,2):  u(1,0,2) >= -0
MCLin7(1,0,2):  -33 y(0,1,2) - u(1,0,2) <= -0
MCLin8(1,0,2):  29 y(0,1,2) + v(1,0,2) - u(1,0,2) <= 29
MCLin9(1,0,2):  29 y(0,1,2) - u(1,0,2) >= -0
MCLin10(1,0,2):  -33 y(0,1,2) + v(1,0,2) - u(1,0,2) >= -33
MCLinV(0,2,0):  x(0,0) - v(0,2,0) - x(2,0) = 1
MCLinV(2,0,0):  - x(0,0) - v(2,0,0) + x(2,0) = 10
MCLin1(0,2,0):  u(0,2,0) >= -0
MCLin2(0,2,0):  -38 y(2,0,0) - u(0,2,0) <= -0
MCLin3(0,2,0):  31 y(2,0,0) + v(0,2,0) - u(0,2,0) <= 31
MCLin4(0,2,0):  31 y(2,0,0) - u(0,2,0) >= -0
MCLin5(0,2,0):  -38 y(2,0,0) + v(0,2,0) - u(0,2,0) >= -38
MCLin6(2,0,0):  u(2,0,0) >= -0
MCLin7(2,0,0):  -42 y(0,2,0) - u(2,0,0) <= -0
MCLin8(2,0,0):  27 y(0,2,0) + v(2,0,0) - u(2,0,0) <= 27
MCLin9(2,0,0):  27 y(0,2,0) - u(2,0,0) >= -0
MCLin10(2,0,0):  -42 y(0,2,0) + v(2,0,0) - u(2,0,0) >= -42
MCLinV(0,2,1):  x(0,1) - v(0,2,1) - x(2,1) = 7
MCLinV(2,0,1):  - x(0,1) - v(2,0,1) + x(2,1) = 2
MCLin1(0,2,1):  u(0,2,1) >= -0
MCLin2(0,2,1):  -35 y(2,0,1) - u(0,2,1) <= -0
MCLin3(0,2,1):  34 y(2,0,1) + v(0,2,1) - u(0,2,1) <= 34
MCLin4(0,2,1):  34 y(2,0,1) - u(0,2,1) >= -0
MCLin5(0,2,1):  -35 y(2,0,1) + v(0,2,1) - u(0,2,1) >= -35
MCLin6(2,0,1):  u(2,0,1) >= -0
MCLin7(2,0,1):  -43 y(0,2,1) - u(2,0,1) <= -0
MCLin8(2,0,1):  26 y(0,2,1) + v(2,0,1) - u(2,0,1) <= 26
MCLin9(2,0,1):  26 y(0,2,1) - u(2,0,1) >= -0
MCLin10(2,0,1):  -43 y(0,2,1) + v(2,0,1) - u(2,0,1) >= -43
MCLinV(0,2,2):  x(0,2) - v(0,2,2) - x(2,2) = 5
MCLinV(2,0,2):  - x(0,2) - v(2,0,2) + x(2,2) = 4
MCLin1(0,2,2):  u(0,2,2) >= -0
MCLin2(0,2,2):  -41 y(2,0,2) - u(0,2,2) <= -0
MCLin3(0,2,2):  28 y(2,0,2) + v(0,2,2) - u(0,2,2) <= 28
MCLin4(0,2,2):  28 y(2,0,2) - u(0,2,2) >= -0
MCLin5(0,2,2):  -41 y(2,0,2) + v(0,2,2) - u(0,2,2) >= -41
MCLin6(2,0,2):  u(2,0,2) >= -0
MCLin7(2,0,2):  -37 y(0,2,2) - u(2,0,2) <= -0
MCLin8(2,0,2):  32 y(0,2,2) + v(2,0,2) - u(2,0,2) <= 32
MCLin9(2,0,2):  32 y(0,2,2) - u(2,0,2) >= -0
MCLin10(2,0,2):  -37 y(0,2,2) + v(2,0,2) - u(2,0,2) >= -37
MCLinV(1,2,0):  x(1,0) - v(1,2,0) - x(2,0) = 1
MCLinV(2,1,0):  - x(1,0) - v(2,1,0) + x(2,0) = 7
MCLin1(1,2,0):  u(1,2,0) >= -0
MCLin2(1,2,0):  -29 y(2,1,0) - u(1,2,0) <= -0
MCLin3(1,2,0):  36 y(2,1,0) + v(1,2,0) - u(1,2,0) <= 36
MCLin4(1,2,0):  36 y(2,1,0) - u(1,2,0) >= -0
MCLin5(1,2,0):  -29 y(2,1,0) + v(1,2,0) - u(1,2,0) >= -29
MCLin6(2,1,0):  u(2,1,0) >= -0
MCLin7(2,1,0):  -44 y(1,2,0) - u(2,1,0) <= -0
MCLin8(2,1,0):  21 y(1,2,0) + v(2,1,0) - u(2,1,0) <= 21
MCLin9(2,1,0):  21 y(1,2,0) - u(2,1,0) >= -0
MCLin10(2,1,0):  -44 y(1,2,0) + v(2,1,0) - u(2,1,0) >= -44
MCLinV(1,2,1):  x(1,1) - v(1,2,1) - x(2,1) = 7
MCLinV(2,1,1):  - x(1,1) - v(2,1,1) + x(2,1) = 4
MCLin1(1,2,1):  u(1,2,1) >= -0
MCLin2(1,2,1):  -49 y(2,1,1) - u(1,2,1) <= -0
MCLin3(1,2,1):  16 y(2,1,1) + v(1,2,1) - u(1,2,1) <= 16
MCLin4(1,2,1):  16 y(2,1,1) - u(1,2,1) >= -0
MCLin5(1,2,1):  -49 y(2,1,1) + v(1,2,1) - u(1,2,1) >= -49
MCLin6(2,1,1):  u(2,1,1) >= -0
MCLin7(2,1,1):  -27 y(1,2,1) - u(2,1,1) <= -0
MCLin8(2,1,1):  38 y(1,2,1) + v(2,1,1) - u(2,1,1) <= 38
MCLin9(2,1,1):  38 y(1,2,1) - u(2,1,1) >= -0
MCLin10(2,1,1):  -27 y(1,2,1) + v(2,1,1) - u(2,1,1) >= -27
MCLinV(1,2,2):  x(1,2) - v(1,2,2) - x(2,2) = 5
MCLinV(2,1,2):  - x(1,2) - v(2,1,2) + x(2,2) = 9
MCLin1(1,2,2):  u(1,2,2) >= -0
MCLin2(1,2,2):  -37 y(2,1,2) - u(1,2,2) <= -0
MCLin3(1,2,2):  28 y(2,1,2) + v(1,2,2) - u(1,2,2) <= 28
MCLin4(1,2,2):  28 y(2,1,2) - u(1,2,2) >= -0
MCLin5(1,2,2):  -37 y(2,1,2) + v(1,2,2) - u(1,2,2) >= -37
MCLin6(2,1,2):  u(2,1,2) >= -0
MCLin7(2,1,2):  -42 y(1,2,2) - u(2,1,2) <= -0
MCLin8(2,1,2):  23 y(1,2,2) + v(2,1,2) - u(2,1,2) <= 23
MCLin9(2,1,2):  23 y(1,2,2) - u(2,1,2) >= -0
MCLin10(2,1,2):  -42 y(1,2,2) + v(2,1,2) - u(2,1,2) >= -42
makespan(0):  C - x(0,1) >= 2
makespan(1):  C - x(1,0) >= 7
makespan(2):  C - x(2,1) >= 7
Bounds
 0 <= C <= 49
 4 <= x(0,0) <= 37
 0 <= y(0,1,0) <= 1
 0 <= y(1,0,0) <= 1
 -45 <= v(0,1,0) <= 17
 -34 <= v(1,0,0) <= 28
 -490 <= u(0,1,0)
 -490 <= u(1,0,0)
 0 <= y(0,2,0) <= 1
 0 <= y(2,0,0) <= 1
 -38 <= v(0,2,0) <= 31
 -42 <= v(2,0,0) <= 27
 -490 <= u(0,2,0)
 -490 <= u(2,0,0)
 13 <= x(1,0) <= 42
 0 <= y(1,2,0) <= 1
 0 <= y(2,1,0) <= 1
 -29 <= v(1,2,0) <= 36
 -44 <= v(2,1,0) <= 21
 -490 <= u(1,2,0)
 -490 <= u(2,1,0)
 5 <= x(2,0) <= 41
 14 <= x(0,1) <= 47
 0 <= y(0,1,1) <= 1
 0 <= y(1,0,1) <= 1
 -19 <= v(0,1,1) <= 43
 -49 <= v(1,0,1) <= 13
 -490 <= u(0,1,1)
 -490 <= u(1,0,1)
 0 <= y(0,2,1) <= 1
 0 <= y(2,0,1) <= 1
 -35 <= v(0,2,1) <= 34
 -43 <= v(2,0,1) <= 26
 -490 <= u(0,2,1)
 -490 <= u(2,0,1)
 0 <= x(1,1) <= 29
 0 <= y(1,2,1) <= 1
 0 <= y(2,1,1) <= 1
 -49 <= v(1,2,1) <= 16
 -27 <= v(2,1,1) <= 38
 -490 <= u(1,2,1)
 -490 <= u(2,1,1)
 6 <= x(2,1) <= 42
 0 <= x(0,2) <= 33
 0 <= y(0,1,2) <= 1
 0 <= y(1,0,2) <= 1
 -42 <= v(0,1,2) <= 20
 -33 <= v(1,0,2) <= 29
 -490 <= u(0,1,2)
 -490 <= u(1,0,2)
 0 <= y(0,2,2) <= 1
 0 <= y(2,0,2) <= 1
 -41 <= v(0,2,2) <= 28
 -37 <= v(2,0,2) <= 32
 -490 <= u(0,2,2)
 -490 <= u(2,0,2)
 4 <= x(1,2) <= 33
 0 <= y(1,2,2) <= 1
 0 <= y(2,1,2) <= 1
 -37 <= v(1,2,2) <= 28
 -42 <= v(2,1,2) <= 23
 -490 <= u(1,2,2)
 -490 <= u(2,1,2)
 0 <= x(2,2) <= 36
Integers
C x(0,0) y(0,1,0) y(1,0,0) v(0,1,0) v(1,0,0) u(0,1,0) u(1,0,0) y(0,2,0) y(2,0,0) 
v(0,2,0) v(2,0,0) u(0,2,0) u(2,0,0) x(1,0) y(1,2,0) y(2,1,0) v(1,2,0) v(2,1,0) u(1,2,0) 
u(2,1,0) x(2,0) x(0,1) y(0,1,1) y(1,0,1) v(0,1,1) v(1,0,1) u(0,1,1) u(1,0,1) y(0,2,1) 
y(2,0,1) v(0,2,1) v(2,0,1) u(0,2,1) u(2,0,1) x(1,1) y(1,2,1) y(2,1,1) v(1,2,1) v(2,1,1) 
u(1,2,1) u(2,1,1) x(2,1) x(0,2) y(0,1,2) y(1,0,2) v(0,1,2) v(1,0,2) u(0,1,2) u(1,0,2) 
y(0,2,2) y(2,0,2) v(0,2,2) v(2,0,2) u(0,2,2) u(2,0,2) x(1,2) y(1,2,2) y(2,1,2) v(1,2,2) 
v(2,1,2) u(1,2,2) u(2,1,2) x(2,2) 
End
